NAME : kroD100-C-5-1-a__cluster_same_priority_ls__25424.tour
COMMENT : Length = 25424.000
COMMENT : Generated by compare_sota_instances.py for cluster_same_priority_ls
TYPE : TOUR
DIMENSION : 100
TOUR_SECTION
21
28
12
47
82
14
68
33
45
99
31
65
1
94
32
97
17
90
98
49
70
89
11
34
81
38
66
8
52
46
23
42
22
58
29
36
67
75
7
74
61
76
72
57
78
80
86
96
16
69
15
84
24
27
50
13
79
88
41
73
39
91
54
63
77
43
71
4
93
44
60
53
62
37
35
30
100
51
19
2
48
92
5
3
83
40
6
59
64
85
18
25
20
9
55
87
26
10
95
56
-1
EOF
